 vasp.5.4.1 05Feb16 (build May 08 2017 17:05:30) complex

 executed on           IFC91_ompi date 2017.05.26  16:08:59

 INCAR:
 POTCAR:    PAW_PBE O 08Apr2002
 POTCAR:    PAW_PBE Ti 08Apr2002

 POTCAR:    PAW_PBE O 08Apr2002
   VRHFIN =O: s2p4

   TITEL  = PAW_PBE O 08Apr2002
   POMASS =   16.000; ZVAL   =    6.000    mass and valenz
   ENMAX  =  400.000; ENMIN  =  300.000 eV

 POTCAR:    PAW_PBE Ti 08Apr2002
   VRHFIN =Ti: d3 s1

   TITEL  = PAW_PBE Ti 08Apr2002
   POMASS =   47.880; ZVAL   =    4.000    mass and valenz
   ENMAX  =  178.330; ENMIN  =  133.747 eV

  PAW_PBE O 08Apr2002                   :
  PAW_PBE Ti 08Apr2002                  :

 POSCAR: TiO2
  positions in direct lattice
  velocities in cartesian coordinates
 exchange correlation table for  LEXCH =        8
   RHO(1)=    0.500       N(1)  =     2000
   RHO(2)=  100.500       N(2)  =     4000

 VTST: version 3.1, (03/28/14)

 CHAIN: initializing optimizer

 OPT: Using VASP Dynamics algorithm
 CHAIN: Read ICHAIN            0

 POSCAR: TiO2
  positions in direct lattice
  velocities in cartesian coordinates

 ion  position               nearest neighbor table
   1  0.000  0.000  0.208-  11 1.96  11 1.96   9 2.00
   2  0.500  0.500  0.708-  12 1.96  12 1.96  10 2.00
   3  0.000  0.500  0.458-  10 1.96  10 1.96  11 2.00
   4  0.500  0.000  0.958-   9 1.96   9 1.96  12 2.00
   5  0.500  0.000  0.542-  10 1.96  10 1.96  12 2.00
   6  0.000  0.500  0.042-   9 1.96   9 1.96  11 2.00
   7  0.500  0.500  0.292-  11 1.96  11 1.96  10 2.00
   8  0.000  0.000  0.792-  12 1.96  12 1.96   9 2.00
   9  0.000  0.000  0.000-   4 1.96   6 1.96   6 1.96   4 1.96   1 2.00   8 2.00  11 3.07  11 3.07
                            12 3.07  12 3.07
  10  0.500  0.500  0.500-   3 1.96   5 1.96   5 1.96   3 1.96   2 2.00   7 2.00  11 3.07  12 3.07
                            12 3.07  11 3.07
  11  0.000  0.500  0.250-   1 1.96   7 1.96   1 1.96   7 1.96   6 2.00   3 2.00   9 3.07   9 3.07
                            10 3.07  10 3.07
  12  0.500  0.000  0.750-   2 1.96   8 1.96   2 1.96   8 1.96   5 2.00   4 2.00   9 3.07  10 3.07
                            10 3.07   9 3.07

  LATTYP: Found a simple tetragonal cell.
 ALAT       =     3.8309874473
 C/A-ratio  =     2.5108790776

  Lattice vectors:

 A1 = (   3.8309874473,   0.0000000000,   0.0000000000)
 A2 = (   0.0000000000,   3.8309874473,   0.0000000000)
 A3 = (   0.0000000000,   0.0000000000,   9.6191462278)

Analysis of symmetry for initial positions (statically):
 Subroutine PRICEL returns following result:

  LATTYP: Found a body centered tetragonal cell.
 ALAT       =     3.8309874473
 C/A-ratio  =     2.5108790776

[...]

   2 primitive cells build up your supercell.

 Routine SETGRP: Setting up the symmetry group for a
 simple tetragonal supercell.

 Subroutine GETGRP returns: Found 16 space group operations
 (whereof  8 operations were pure point group operations)
 out of a pool of 16 trial point group operations.

The static configuration has the point symmetry D_2d.
 The point group associated with its full space group is D_4h.

Analysis of symmetry for dynamics (positions and initial velocities):
 Subroutine PRICEL returns following result:

[...]

The dynamic configuration has the point symmetry D_2d.
 The point group associated with its full space group is D_4h.

Analysis of structural, dynamic, and magnetic symmetry:
 Subroutine PRICEL returns following result:

  LATTYP: Found a body centered tetragonal cell.
 ALAT       =     3.8309874473
 C/A-ratio  =     2.5108790776

  Lattice vectors:

 A1 = (  -1.9154937236,   1.9154937236,  -4.8095731139)
 A2 = (   1.9154937236,  -1.9154937236,  -4.8095731139)
 A3 = (  -1.9154937236,  -1.9154937236,   4.8095731139)

   2 primitive cells build up your supercell.

 Routine SETGRP: Setting up the symmetry group for a
 simple tetragonal supercell.

 Subroutine GETGRP returns: Found 16 space group operations
 (whereof  8 operations were pure point group operations)
 out of a pool of 16 trial point group operations.

The magnetic configuration has the point symmetry D_2d.
 The point group associated with its full space group is D_4h.

 Subroutine INISYM returns: Found 16 space group operations
 (whereof  8 operations are pure point group operations),
 and found     2 'primitive' translations

 KPOINTS: Line_mode KPOINTS file
  interpolating k-points between supplied coordinates
  k-points in reciprocal lattice
Space group operators:
 irot       det(A)        alpha          n_x          n_y          n_z        tau_x        tau_y        tau_z
    1     1.000000     0.000000     1.000000     0.000000     0.000000     0.000000     0.000000     0.000000
    2    -1.000000    90.000000     0.000000     0.000000    -1.000000     0.000000     0.000000     0.000000
    3     1.000000   180.000000     0.000000     0.000000     1.000000     0.000000     0.000000     0.000000
    4    -1.000000    90.000000     0.000000     0.000000     1.000000     0.000000     0.000000     0.000000
    5    -1.000000   180.000000     0.000000     1.000000     0.000000     0.000000     0.000000     0.000000
    6     1.000000   180.000000     0.707107     0.707107     0.000000     0.000000     0.000000     0.000000
    7    -1.000000   180.000000     1.000000     0.000000     0.000000     0.000000     0.000000     0.000000
    8     1.000000   180.000000     0.707107    -0.707107     0.000000     0.000000     0.000000     0.000000
    9    -1.000000     0.000000     1.000000     0.000000     0.000000    -0.500000    -0.000000    -0.250000
   10     1.000000    90.000000     0.000000     0.000000    -1.000000    -0.500000    -0.000000    -0.250000
   11    -1.000000   180.000000     0.000000     0.000000     1.000000    -0.500000    -0.000000    -0.250000
   12     1.000000    90.000000     0.000000     0.000000     1.000000    -0.500000    -0.000000    -0.250000
   13     1.000000   180.000000     0.000000     1.000000     0.000000    -0.500000    -0.000000    -0.250000
   14    -1.000000   180.000000     0.707107     0.707107     0.000000    -0.500000    -0.000000    -0.250000
   15     1.000000   180.000000     1.000000     0.000000     0.000000    -0.500000    -0.000000    -0.250000
   16    -1.000000   180.000000     0.707107    -0.707107     0.000000    -0.500000    -0.000000    -0.250000

 I would recommend the setting:
   dimension x,y,z NGX =    31 NGY =   31 NGZ =   77
 SYSTEM =  TiO2
 POSCAR =  TiO2

 Startparameter for this run:
   NWRITE =      2    write-flag & timer
   PREC   = accura    normal or accurate (medium, high low for compatibility)
   ISTART =      1    job   : 0-new  1-cont  2-samecut
   ICHARG =     11    charge: 1-file 2-atom 10-const
   ISPIN  =      2    spin polarized calculation?
   LNONCOLLINEAR =      F non collinear calculations
   LSORBIT =      F    spin-orbit coupling
   INIWAV =      1    electr: 0-lowe 1-rand  2-diag
   LASPH  =      F    aspherical Exc in radial PAW
   METAGGA=      F    non-selfconsistent MetaGGA calc.

 Electronic Relaxation 1
   ENCUT  =  600.0 eV  44.10 Ry    6.64 a.u.   7.65  7.65 19.21*2*pi/ulx,y,z
   ENINI  =  600.0     initial cutoff
   ENAUG  =  605.4 eV  augmentation charge cutoff
   NELM   =     60;   NELMIN=  2; NELMDL=  0     # of ELM steps
   EDIFF  = 0.1E-05   stopping-criterion for ELM
   LREAL  =      F    real-space projection
   NLSPLINE    = F    spline interpolate recip. space projectors
   LCOMPAT=      F    compatible to vasp.4.4
   GGA_COMPAT  = T    GGA compatible to vasp.4.4-vasp.4.6
   LMAXPAW     = -100 max onsite density
   LMAXMIX     =    2 max onsite mixed and CHGCAR
   VOSKOWN=      0    Vosko Wilk Nusair interpolation
   ROPT   =    0.00000   0.00000
 Ionic relaxation
   EDIFFG = 0.1E-04   stopping-criterion for IOM
   NSW    =      0    number of steps for IOM
   NBLOCK =      1;   KBLOCK =      1    inner block; outer block
   IBRION =     -1    ionic relax: 0-MD 1-quasi-New 2-CG
   NFREE  =      0    steps in history (QN), initial steepest desc. (CG)
   ISIF   =      2    stress and relaxation
   IWAVPR =     10    prediction:  0-non 1-charg 2-wave 3-comb
   ISYM   =      2    0-nonsym 1-usesym 2-fastsym
   LCORR  =      T    Harris-Foulkes like correction to forces

   POTIM  = 0.5000    time-step for ionic-motion
   TEIN   =    0.0    initial temperature
   TEBEG  =    0.0;   TEEND  =   0.0 temperature during run
   SMASS  =  -3.00    Nose mass-parameter (am)
   estimated Nose-frequenzy (Omega)   =  0.10E-29 period in steps =****** mass=  -0.335E-27a.u.
   SCALEE = 1.0000    scale energy and forces
   NPACO  =    256;   APACO  = 16.0  distance and # of slots for P.C.
   PSTRESS=    0.0 pullay stress

  Mass of Ions in am
   POMASS =  16.00 47.88
  Ionic Valenz
   ZVAL   =   6.00  4.00
  Atomic Wigner-Seitz radii
  virtual crystal weights
   VCA    =   1.00  1.00
   NELECT =      64.0000    total number of electrons
   NUPDOWN=      -1.0000    fix difference up-down

 DOS related values:
   EMIN   =  10.00;   EMAX   =-10.00  energy-range for DOS
   EFERMI =   0.00
   ISMEAR =     0;   SIGMA  =   0.02  broadening in eV -4-tet -1-fermi 0-gaus

 Electronic relaxation 2 (details)
   IALGO  =     38    algorithm
   LDIAG  =      T    sub-space diagonalisation (order eigenvalues)
   LSUBROT=      F    optimize rotation matrix (better conditioning)
   TURBO    =      0    0=normal 1=particle mesh
   IRESTART =      0    0=no restart 2=restart with 2 vectors
   NREBOOT  =      0    no. of reboots
   NMIN     =      0    reboot dimension
   EREF     =   0.00    reference energy to select bands
   IMIX   =      4    mixing-type and parameters
     AMIX     =   0.40;   BMIX     =  1.00
     AMIX_MAG =   1.60;   BMIX_MAG =  1.00
     AMIN     =   0.10
     WC   =   100.;   INIMIX=   1;  MIXPRE=   1;  MAXMIX= -45

 Intra band minimization:
   WEIMIN = 0.0000     energy-eigenvalue tresh-hold
   EBREAK =  0.45E-08  absolut break condition
   DEPER  =   0.30     relativ break condition

   TIME   =   0.40     timestep for ELM

  volume/ion in A,a.u.               =      11.76        79.39
  Fermi-wavevector in a.u.,A,eV,Ry     =   1.257618  2.376554 21.519024  1.581604
  Thomas-Fermi vector in A             =   2.391268

 Write flags
   LWAVE  =      F    write WAVECAR
   LCHARG =      F    write CHGCAR
   LVTOT  =      F    write LOCPOT, total local potential
   LVHAR  =      F    write LOCPOT, Hartree potential only
   LELF   =      F    write electronic localiz. function (ELF)
   LORBIT =     11    0 simple, 1 ext, 2 COOP (PROOUT)

 Dipole corrections
   LMONO  =      F    monopole corrections only (constant potential shift)
   LDIPOL =      F    correct potential (dipole corrections)
   IDIPOL =      0    1-x, 2-y, 3-z, 4-all directions
   EPSILON=  1.0000000 bulk dielectric constant

 Exchange correlation treatment:
   GGA     =    PE    GGA type
   VOSKOWN=      0    Vosko Wilk Nusair interpolation
   LHFCALC =     F    Hartree Fock is set to
   LHFONE  =     F    Hartree Fock one center treatment
   AEXX    =    0.0000 exact exchange contribution

 Linear response parameters
   LEPSILON=     F    determine dielectric tensor
   LRPA    =     F    only Hartree local field effects (RPA)
[...]
 k-point ** :   0.1676 0.6218-0.1676  plane waves:    4704
 k-point ** :   0.1524 0.6108-0.1524  plane waves:    4705
 k-point ** :   0.1372 0.5997-0.1372  plane waves:    4707
 k-point ** :   0.1219 0.5886-0.1219  plane waves:    4706
 k-point ** :   0.1067 0.5775-0.1067  plane waves:    4715
 k-point ** :   0.0914 0.5665-0.0914  plane waves:    4722
 k-point ** :   0.0762 0.5554-0.0762  plane waves:    4730
 k-point ** :   0.0610 0.5443-0.0610  plane waves:    4731
 k-point ** :   0.0457 0.5332-0.0457  plane waves:    4731
 k-point ** :   0.0305 0.5222-0.0305  plane waves:    4728
 k-point ** :   0.0152 0.5111-0.0152  plane waves:    4723
 k-point ** :   0.0000 0.5000 0.0000  plane waves:    4728
 k-point ** :   0.0000 0.5000 0.0000  plane waves:    4728
 k-point ** :   0.0132 0.4868 0.0132  plane waves:    4724
 k-point ** :   0.0263 0.4737 0.0263  plane waves:    4724
 k-point ** :   0.0395 0.4605 0.0395  plane waves:    4728
 k-point ** :   0.0526 0.4474 0.0526  plane waves:    4729
 k-point ** :   0.0658 0.4342 0.0658  plane waves:    4728
 k-point ** :   0.0789 0.4211 0.0789  plane waves:    4725
 k-point ** :   0.0921 0.4079 0.0921  plane waves:    4723
 k-point ** :   0.1053 0.3947 0.1053  plane waves:    4714
 k-point ** :   0.1184 0.3816 0.1184  plane waves:    4713
 k-point ** :   0.1316 0.3684 0.1316  plane waves:    4712
 k-point ** :   0.1447 0.3553 0.1447  plane waves:    4708
 k-point ** :   0.1579 0.3421 0.1579  plane waves:    4707
 k-point ** :   0.1711 0.3289 0.1711  plane waves:    4707
 k-point ** :   0.1842 0.3158 0.1842  plane waves:    4710
 k-point ** :   0.1974 0.3026 0.1974  plane waves:    4710
 k-point ** :   0.2105 0.2895 0.2105  plane waves:    4711
 k-point ** :   0.2237 0.2763 0.2237  plane waves:    4715
 k-point ** :   0.2368 0.2632 0.2368  plane waves:    4715
[...]
 k-point ** :   0.0658 0.0658 0.4342  plane waves:    4712
 k-point ** :   0.0789 0.0789 0.4211  plane waves:    4716
 k-point ** :   0.0921 0.0921 0.4079  plane waves:    4706
 k-point ** :   0.1053 0.1053 0.3947  plane waves:    4701
 k-point ** :   0.1184 0.1184 0.3816  plane waves:    4714
 k-point ** :   0.1316 0.1316 0.3684  plane waves:    4713
 k-point ** :   0.1447 0.1447 0.3553  plane waves:    4712
 k-point ** :   0.1579 0.1579 0.3421  plane waves:    4715
 k-point ** :   0.1711 0.1711 0.3289  plane waves:    4724
 k-point ** :   0.1842 0.1842 0.3158  plane waves:    4717
 k-point ** :   0.1974 0.1974 0.3026  plane waves:    4721
 k-point ** :   0.2105 0.2105 0.2895  plane waves:    4723
 k-point ** :   0.2237 0.2237 0.2763  plane waves:    4726
 k-point ** :   0.2368 0.2368 0.2632  plane waves:    4720
 k-point ** :   0.2500 0.2500 0.2500  plane waves:    4725

 maximum and minimum number of plane-waves per node :      4736     4668

 maximum number of plane-waves:      4736
 maximum index in each direction:
   IXMAX=    7   IYMAX=    7   IZMAX=   19
   IXMIN=   -8   IYMIN=   -8   IZMIN=  -19

 NGX is ok and might be reduce to  32
 NGY is ok and might be reduce to  32
 NGZ is ok and might be reduce to  78

 serial   3D FFT for wavefunctions
 parallel 3D FFT for charge:
    minimum data exchange during FFTs selected (reduces bandwidth)

 initial charge density was supplied:
 number of electron      64.0000014 magnetization       0.0004440
 keeping initial charge density in first step

 Maximum index for augmentation-charges         2572 (set IRDMAX)

 First call to EWALD:  gamma=   0.340
 Maximum number of real-space cells 4x 4x 2
 Maximum number of reciprocal cells 2x 2x 5

 FEWALD executed in parallel

----------------------------------------- Iteration    1(   1)  ---------------------------------------

 eigenvalue-minimisations  : 56812
 total energy-change (2. order) :-0.9741030E+02  (-0.8776531E+02)
 number of electron      64.0000014 magnetization       0.0004440
 augmentation part       64.0000014 magnetization       0.0004440

 Free energy of the ion-electron system (eV)
  alpha Z        PSCENC =       243.75862619
  Ewald energy   TEWEN  =     -2912.24672113
  -Hartree energ DENC   =     -1155.30899057
  -exchange      EXHF   =         0.00000000
  -V(xc)+E(xc)   XCENC  =        84.52436354
  PAW double counting   =      5963.75102711    -5818.24802822
  entropy T*S    EENTRO =        -0.00000000
  eigenvalues    EBANDS =      -341.70722729
  atomic energy  EATOM  =      3838.06664596
  Solvation  Ediel_sol  =         0.00000000
  free energy    TOTEN  =       -97.41030440 eV

  energy without entropy =      -97.41030440  energy(sigma->0) =      -97.41030440

[...]

----------------------------------------- Iteration    1(   6)  ---------------------------------------

 eigenvalue-minimisations  : 60424
 total energy-change (2. order) :-0.1230319E-06  (-0.1230142E-06)
 number of electron      64.0000014 magnetization       0.0004440
 augmentation part       64.0000014 magnetization       0.0004440

 Free energy of the ion-electron system (eV)
  alpha Z        PSCENC =       243.75862619
  Ewald energy   TEWEN  =     -2912.24672113
  -Hartree energ DENC   =     -1155.30899057
  -exchange      EXHF   =         0.00000000
  -V(xc)+E(xc)   XCENC  =        84.52436354
  PAW double counting   =      5963.75102711    -5818.24802822
  entropy T*S    EENTRO =        -0.00000000
  eigenvalues    EBANDS =      -348.32920710
  atomic energy  EATOM  =      3838.06664596
  Solvation  Ediel_sol  =         0.00000000
  free energy    TOTEN  =      -104.03228422 eV

  energy without entropy =     -104.03228422  energy(sigma->0) =     -104.03228422

 average (electrostatic) potential at core
  the test charge radii are     0.7215  1.2598
  (the norm of the test charge is              1.0000)
       1 -73.3123       2 -73.3123       3 -73.3123       4 -73.3123       5 -73.3123
       6 -73.3123       7 -73.3123       8 -73.3123       9 -29.0401      10 -29.0401
      11 -29.0401      12 -29.0401

 E-fermi :   0.5698     XC(G=0): -10.3506     alpha+bet : -9.6267

 spin component 1

 k-point     1 :       0.0000    0.0000    0.0000
  band No.  band energies     occupation
      1     -17.1013      1.00000
      2     -16.6124      1.00000
      3     -16.6124      1.00000
      4     -16.1035      1.00000
      5     -16.0886      1.00000
      6     -15.8818      1.00000
      7     -15.8818      1.00000
      8     -15.6403      1.00000
      9      -3.3826      1.00000
     10      -3.3198      1.00000
     11      -3.3198      1.00000
     12      -3.2356      1.00000
     13      -3.2356      1.00000
     14      -3.1466      1.00000
     15      -3.1466      1.00000
     16      -2.8833      1.00000
     17      -1.5662      1.00000
     18      -1.5662      1.00000
     19      -1.5406      1.00000
     20      -1.5098      1.00000
     21      -1.5098      1.00000
     22      -0.8488      1.00000
     23      -0.8488      1.00000
     24      -0.8044      1.00000
     25      -0.8044      1.00000
     26      -0.3149      1.00000
     27      -0.3149      1.00000
     28      -0.2920      1.00000
     29       0.0340      1.00000
     30       0.0340      1.00000
     31       0.3402      1.00000
     32       0.3402      1.00000
     33       2.3280      0.00000
     34       2.6507      0.00000
     35       2.6507      0.00000
     36       2.9928      0.00000
     37       3.8294      0.00000
     38       3.8294      0.00000
     39       4.0499      0.00000
     40       4.0499      0.00000
     41       4.1127      0.00000
     42       4.1127      0.00000
     43       4.3645      0.00000
     44       4.3645      0.00000
     45       4.8346      0.00000
     46       4.8346      0.00000
     47       4.9284      0.00000
     48       5.2021      0.00000
     49       5.2084      0.00000
     50       5.7548      0.00000
     51       5.7548      0.00000
     52       6.3701      0.00000
     53       7.7981      0.00000
     54       9.8760      0.00000
     55       9.8760      0.00000
     56      12.5281      0.00000

[...]

 spin component 2

[...]

 k-point   220 :       0.2500    0.2500    0.2500
  band No.  band energies     occupation
      1     -16.6209      1.00000
      2     -16.4192      1.00000
      3     -16.1443      1.00000
      4     -15.9613      1.00000
      5     -15.8760      1.00000
      6     -15.8189      1.00000
      7     -15.7099      1.00000
      8     -15.6118      1.00000
      9      -4.0259      1.00000
     10      -3.9937      1.00000
     11      -3.8896      1.00000
     12      -3.7942      1.00000
     13      -3.4036      1.00000
     14      -2.9779      1.00000
     15      -2.9273      1.00000
     16      -2.7873      1.00000
     17      -2.5329      1.00000
     18      -2.3809      1.00000
     19      -2.0561      1.00000
     20      -2.0224      1.00000
     21      -1.8664      1.00000
     22      -1.7851      1.00000
     23      -1.7771      1.00000
     24      -1.5605      1.00000
     25      -1.2491      1.00000
     26      -0.9287      1.00000
     27      -0.4956      1.00000
     28      -0.4787      1.00000
     29      -0.1671      1.00000
     30      -0.1237      1.00000
     31       0.1876      1.00000
     32       0.2056      1.00000
     33       3.0917      0.00000
     34       3.1340      0.00000
     35       3.3052      0.00000
     36       3.3486      0.00000
     37       3.5589      0.00000
     38       3.5889      0.00000
     39       3.6795      0.00000
     40       3.7388      0.00000
     41       3.9747      0.00000
     42       4.0925      0.00000
     43       4.1447      0.00000
     44       4.3302      0.00000
     45       5.6767      0.00000
     46       5.6964      0.00000
     47       6.1344      0.00000
     48       6.4599      0.00000
     49       6.7750      0.00000
     50       6.8915      0.00000
     51       6.9186      0.00000
     52       7.0224      0.00000
     53       9.7094      0.00000
     54      10.3135      0.00000
     55      11.6081      0.00000
     56      12.7630      0.00000

 soft charge-density along one line, spin component           1
         0         1         2         3         4         5         6         7         8         9
 total charge-density along one line

 soft charge-density along one line, spin component           2
         0         1         2         3         4         5         6         7         8         9
 total charge-density along one line

------------------------ aborting loop because EDIFF is reached ----------------------------------------

 total charge

# of ion     s       p       d       tot
  1        1.569   3.472   0.000   5.042
  2        1.569   3.472   0.000   5.042
  3        1.563   3.523   0.000   5.087
  4        1.563   3.523   0.000   5.087
  5        1.569   3.472   0.000   5.042
  6        1.569   3.472   0.000   5.042
  7        1.563   3.523   0.000   5.087
  8        1.563   3.523   0.000   5.087
  9        0.531   1.053   2.515   4.100
 10        0.531   1.053   2.515   4.100
 11        0.531   1.053   2.515   4.100
 12        0.531   1.053   2.515   4.100
tot       14.657  32.195  10.061  56.913

 magnetization (x)

[...]

  FORCE on cell =-STRESS in cart. coord.  units (eV):
  Direction    XX          YY          ZZ          XY          YZ          ZX
  Alpha Z   243.75863   243.75863   243.75863
  Ewald   -1025.95363 -1025.95363  -860.34575     0.00000     0.00000     0.00000
  Hartree   367.85684   367.85684   432.77143    -0.00000    -0.00000    -0.00000
  E(xc)    -305.42226  -305.42226  -306.31743     0.00000     0.00000     0.00000
  Local    -322.18932  -322.18932  -547.52438    -0.00000     0.00000     0.00000
  n-local  -186.82722  -189.38257  -189.06171     0.00079     0.00886    -0.00473
  augment    73.89789    73.89789    74.36376    -0.00000     0.00000     0.00000
  Kinetic  1165.11007  1161.31684  1158.83359     0.12151    -0.03203     0.00499
  Fock        0.00000     0.00000     0.00000     0.00000     0.00000     0.00000
  Total       7.05671     7.05671     6.47814     0.00000     0.00000     0.00000
  in kB      80.08572    80.08572    73.51959     0.00000     0.00000     0.00000

 VOLUME and BASIS-vectors are now :
  energy-cutoff  :      600.00
  volume of cell :      141.18
      direct lattice vectors                 reciprocal lattice vectors
     3.830987447  0.000000000  0.000000000     0.261029307  0.000000000  0.000000000
     0.000000000  3.830987447  0.000000000     0.000000000  0.261029307  0.000000000
     0.000000000  0.000000000  9.619146228     0.000000000  0.000000000  0.103959330

  length of vectors
     3.830987447  3.830987447  9.619146228     0.261029307  0.261029307  0.103959330

 FORCES acting on ions
    electron-ion (+dipol)            ewald-force                    non-local-force                 convergence-correction
   0.202E-14 0.430E-12 -.464E+02   -.949E-14 0.256E-14 0.505E+02   0.000E+00 0.136E-19 -.631E+01   -.138E-13 0.394E-13 0.138E+01
   0.127E-12 -.449E-12 -.464E+02   -.920E-14 0.290E-14 0.505E+02   0.000E+00 0.136E-19 -.631E+01   0.137E-14 0.810E-12 0.138E+01
   0.750E-14 -.816E-12 -.464E+02   -.133E-13 0.111E-14 0.505E+02   0.000E+00 -.122E-18 -.631E+01   0.270E-14 0.101E-12 0.138E+01
   0.130E-12 -.890E-12 -.464E+02   -.130E-13 0.103E-14 0.505E+02   0.000E+00 -.122E-18 -.631E+01   0.283E-14 0.132E-12 0.138E+01
   0.121E-12 -.397E-12 0.464E+02   0.641E-14 0.370E-15 -.505E+02   0.000E+00 -.136E-19 0.631E+01   -.653E-14 -.294E-12 -.138E+01
   -.278E-14 -.330E-12 0.464E+02   0.630E-14 0.707E-15 -.505E+02   0.000E+00 -.136E-19 0.631E+01   0.592E-14 -.562E-13 -.138E+01
   0.111E-12 0.117E-11 0.464E+02   0.126E-13 -.295E-14 -.505E+02   0.407E-19 0.542E-19 0.631E+01   0.190E-13 -.356E-13 -.138E+01
   -.679E-14 0.920E-12 0.464E+02   0.124E-13 -.304E-14 -.505E+02   0.136E-19 0.542E-19 0.631E+01   0.161E-13 -.157E-11 -.138E+01
   -.514E-16 0.335E-12 0.143E-12   0.354E-14 -.515E-14 -.213E-13   -.163E-18 0.407E-19 -.139E-16   -.840E-15 -.116E-13 -.451E-12
   -.464E-14 0.309E-12 0.196E-12   0.360E-14 -.512E-14 -.355E-13   0.000E+00 -.407E-19 -.139E-16   -.102E-14 0.602E-13 0.733E-12
   -.932E-15 -.325E-12 -.170E-12   -.229E-14 0.100E-14 -.997E-14   0.000E+00 0.678E-19 0.694E-17   -.209E-14 -.916E-14 0.109E-11
   -.287E-14 -.355E-12 -.139E-12   -.223E-14 0.784E-15 0.997E-14   0.163E-18 0.407E-19 0.694E-17   -.252E-14 -.653E-13 -.153E-11
   0.481E-12 -.396E-12 0.270E-11   -.475E-14 -.581E-14 -.142E-13   0.542E-19 -.271E-19 -.139E-16   0.212E-13 -.903E-12 -.190E-11

 POSITION                                       TOTAL-FORCE (eV/Angst)
      0.00000      0.00000      2.00070        -0.000000      0.000000     -0.892400
      1.91549      1.91549      6.81027        -0.000000      0.000000     -0.892400
      0.00000      1.91549      4.40549        -0.000000     -0.000000     -0.892400
      1.91549      0.00000      9.21506         0.000000      0.000000     -0.892400
      1.91549      0.00000      5.21366        -0.000000     -0.000000      0.892400
      0.00000      1.91549      0.40409         0.000000     -0.000000      0.892400
      1.91549      1.91549      2.80887        -0.000000     -0.000000      0.892400
      0.00000      0.00000      7.61845        -0.000000      0.000000      0.892400
      0.00000      0.00000      0.00000         0.000000      0.000000      0.000000
      1.91549      1.91549      4.80957         0.000000      0.000000      0.000000
      0.00000      1.91549      2.40479        -0.000000     -0.000000      0.000000
      1.91549      0.00000      7.21436        -0.000000     -0.000000      0.000000
    total drift:                                0.000000     -0.000000      0.000000

  FREE ENERGIE OF THE ION-ELECTRON SYSTEM (eV)
  free  energy   TOTEN  =      -104.03228422 eV

  energy  without entropy=     -104.03228422  energy(sigma->0) =     -104.03228422

 stress matrix after NEB project (eV)
      7.05671      0.00000      0.00000
      0.00000      7.05671      0.00000
      0.00000      0.00000      6.47814
  FORCES: max atom, RMS     0.892400    0.728642
  FORCE total and by dimension    2.524089    0.892400
  Stress total and by dimension   11.897930    7.056713

 total charge

[...]

 magnetization (x)

# of ion     s       p       d       tot
  1       -0.000  -0.000   0.000  -0.000
  2       -0.000  -0.000   0.000  -0.000
  3       -0.000  -0.000   0.000  -0.000
  4       -0.000  -0.000   0.000  -0.000
  5       -0.000  -0.000   0.000  -0.000
  6       -0.000  -0.000   0.000  -0.000
  7       -0.000  -0.000   0.000  -0.000
  8       -0.000  -0.000   0.000  -0.000
  9        0.000   0.000   0.000   0.000
 10        0.000   0.000   0.000   0.000
 11        0.000   0.000   0.000   0.000
 12        0.000   0.000   0.000   0.000
tot       -0.000  -0.000   0.000  -0.000